nBusiness = 60;
nMeetings = 236;
nTables = 25;
nTotalSlots = 10;
nMorningSlots = 10;

requested = [|1, 41, 3,
|1, 12, 3,
|1, 29, 3,
|1, 44, 3,
|1, 45, 3,
|1, 52, 3,
|1, 53, 3,
|1, 56, 3,
|60, 2, 3,
|12, 2, 3,
|35, 2, 3,
|3, 22, 3,
|4, 45, 3,
|4, 59, 3,
|57, 4, 3,
|4, 15, 3,
|4, 43, 3,
|17, 4, 3,
|31, 4, 3,
|14, 4, 3,
|6, 4, 3,
|9, 5, 3,
|5, 48, 3,
|9, 7, 3,
|9, 13, 3,
|9, 8, 3,
|9, 11, 3,
|10, 6, 3,
|10, 31, 3,
|10, 11, 3,
|10, 15, 3,
|14, 3, 3,
|14, 7, 3,
|16, 57, 3,
|16, 3, 3,
|17, 60, 3,
|57, 17, 3,
|14, 17, 3,
|17, 15, 3,
|18, 41, 3,
|20, 15, 3,
|20, 2, 3,
|20, 12, 3,
|20, 16, 3,
|20, 34, 3,
|20, 51, 3,
|20, 29, 3,
|21, 39, 3,
|21, 47, 3,
|21, 41, 3,
|25, 21, 3,
|43, 21, 3,
|21, 2, 3,
|21, 16, 3,
|21, 19, 3,
|23, 6, 3,
|23, 3, 3,
|23, 35, 3,
|23, 47, 3,
|23, 51, 3,
|41, 23, 3,
|23, 2, 3,
|24, 6, 3,
|24, 5, 3,
|24, 15, 3,
|24, 18, 3,
|24, 23, 3,
|24, 25, 3,
|24, 28, 3,
|24, 60, 3,
|46, 24, 3,
|41, 24, 3,
|25, 18, 3,
|25, 37, 3,
|41, 25, 3,
|28, 25, 3,
|60, 25, 3,
|26, 14, 3,
|26, 3, 3,
|26, 4, 3,
|26, 13, 3,
|26, 16, 3,
|1, 26, 3,
|52, 26, 3,
|10, 26, 3,
|35, 26, 3,
|26, 22, 3,
|20, 27, 3,
|44, 27, 3,
|14, 27, 3,
|40, 27, 3,
|10, 27, 3,
|57, 27, 3,
|31, 27, 3,
|6, 27, 3,
|28, 12, 3,
|14, 28, 3,
|28, 5, 3,
|28, 7, 3,
|28, 13, 3,
|29, 15, 3,
|29, 56, 3,
|57, 29, 3,
|29, 37, 3,
|2, 29, 3,
|17, 29, 3,
|20, 30, 3,
|40, 30, 3,
|57, 30, 3,
|31, 30, 3,
|6, 30, 3,
|25, 33, 3,
|10, 33, 3,
|9, 33, 3,
|15, 33, 3,
|33, 29, 3,
|33, 37, 3,
|33, 44, 3,
|49, 33, 3,
|35, 7, 3,
|35, 39, 3,
|35, 45, 3,
|16, 36, 3,
|57, 36, 3,
|36, 12, 3,
|36, 13, 3,
|36, 32, 3,
|2, 36, 3,
|31, 36, 3,
|6, 36, 3,
|37, 15, 3,
|37, 32, 3,
|28, 37, 3,
|14, 38, 3,
|12, 38, 3,
|35, 38, 3,
|38, 37, 3,
|38, 54, 3,
|1, 38, 3,
|23, 38, 3,
|20, 38, 3,
|21, 38, 3,
|40, 15, 3,
|40, 3, 3,
|40, 29, 3,
|40, 38, 3,
|25, 40, 3,
|10, 40, 3,
|57, 40, 3,
|41, 2, 3,
|42, 25, 3,
|42, 3, 3,
|42, 8, 3,
|42, 17, 3,
|42, 34, 3,
|42, 46, 3,
|10, 42, 3,
|18, 42, 3,
|28, 42, 3,
|31, 42, 3,
|43, 7, 3,
|43, 49, 3,
|16, 43, 3,
|18, 43, 3,
|37, 43, 3,
|55, 43, 3,
|43, 8, 3,
|44, 6, 3,
|44, 35, 3,
|44, 45, 3,
|44, 49, 3,
|44, 51, 3,
|47, 44, 3,
|46, 3, 3,
|46, 16, 3,
|46, 48, 3,
|46, 49, 3,
|52, 46, 3,
|46, 2, 3,
|31, 46, 3,
|47, 22, 3,
|47, 39, 3,
|12, 49, 3,
|9, 49, 3,
|49, 56, 3,
|28, 49, 3,
|50, 18, 3,
|50, 33, 3,
|50, 34, 3,
|50, 41, 3,
|40, 50, 3,
|46, 50, 3,
|35, 51, 3,
|52, 18, 3,
|52, 21, 3,
|52, 31, 3,
|52, 17, 3,
|52, 33, 3,
|52, 34, 3,
|52, 35, 3,
|3, 53, 3,
|54, 41, 3,
|54, 23, 3,
|43, 54, 3,
|16, 54, 3,
|37, 54, 3,
|54, 5, 3,
|54, 10, 3,
|54, 15, 3,
|54, 49, 3,
|55, 45, 3,
|55, 51, 3,
|55, 8, 3,
|12, 55, 3,
|56, 5, 3,
|58, 12, 3,
|58, 22, 3,
|58, 32, 3,
|58, 37, 3,
|58, 44, 3,
|59, 58, 3,
|41, 58, 3,
|18, 58, 3,
|31, 58, 3,
|6, 58, 3,
|59, 9, 3,
|59, 11, 3,
|59, 12, 3,
|59, 49, 3,
|16, 59, 3,
|31, 59, 3,
|6, 59, 3,
|60, 39, 3,
|60, 34, 3,
|60, 48, 3,
|60, 51, 3,
|];

nMeetingsBusiness = [10, 10, 9, 10, 6, 10, 5, 4, 8, 10, 3, 10, 4, 8, 10, 10, 8, 8, 1, 10, 10, 4, 10, 10, 10, 10, 8, 10, 10, 5, 10, 3, 10, 5, 10, 8, 10, 10, 4, 10, 10, 10, 10, 10, 5, 10, 5, 3, 10, 6, 6, 10, 2, 10, 5, 4, 8, 10, 9, 8, ];

fixat = [0,0,0,0,0,0,0,0,0,0,0,0,0,0,0,0,0,0,0,0,0,0,0,0,0,0,0,0,0,0,0,0,0,0,0,0,0,0,0,0,0,0,0,0,0,0,0,0,0,0,0,0,0,0,0,0,0,0,0,0,0,0,0,0,0,0,0,0,0,0,0,0,0,0,0,0,0,0,0,0,0,0,0,0,0,0,0,0,0,0,0,0,0,0,0,0,0,0,0,0,0,0,0,0,0,0,0,0,0,0,0,0,0,0,0,0,0,0,0,0,0,0,0,0,0,0,0,0,0,0,0,0,0,0,0,0,0,0,0,0,0,0,0,0,0,0,0,0,0,0,0,0,0,0,0,0,0,0,0,0,0,0,0,0,0,0,0,0,0,0,0,0,0,0,0,0,0,0,0,0,0,0,0,0,0,0,0,0,0,0,0,0,0,0,0,0,0,0,0,0,0,0,0,0,0,0,0,0,0,0,0,0,0,0,0,0,0,0,0,0,0,0,0,0,0,0,0,0,0,0,0,0,0,0,0,0,];

forbidden = [{0,},
{0,},
{0,},
{0,},
{0,3,4,},
{0,},
{0,},
{0,1,2,},
{0,},
{0,},
{0,},
{0,},
{0,},
{0,},
{0,},
{0,},
{0,5,6,},
{0,2,3,},
{0,},
{0,},
{0,},
{0,},
{0,},
{0,},
{0,},
{0,},
{0,},
{0,},
{0,},
{0,},
{0,},
{0,},
{0,},
{0,},
{0,},
{0,},
{0,},
{0,},
{0,},
{0,},
{0,},
{0,},
{0,},
{0,},
{0,},
{0,},
{0,},
{0,},
{0,},
{0,},
{0,},
{0,},
{0,},
{0,},
{0,2,3,},
{0,},
{0,5,6,},
{0,},
{0,},
{0,6,7,},
];